db/data/2909029609471825971221222002884426523.z3.out
-------------------
2500.177648784
